
===== New CPLEX run =====
Instance: /home/yorig/tuner/mpils-tests/instances/miplib/medium-1/neos-3555904-turama.mps
Config: /scratch/yorig/mpils-results-grid-seconds-10-no-mip-start/medium-1/4proc/seed-5/10_neos-3555904-turama_seed-5_20260503_050237/iterated_local_search/run_3_worker_3/ils_config_8137639262425748664.prm
========================

Selected objective sense:  MINIMIZE
Selected objective  name:  Obj
Selected RHS        name:  RHS
Selected bound      name:  Bound
Version identifier: 22.1.2.0 | 2024-11-26 | 0edbb82fd
CPXPARAM_Threads                                 8
CPXPARAM_Parallel                                1
CPXPARAM_MIP_Strategy_SubAlgorithm               4
CPXPARAM_MIP_Cuts_FlowCovers                     -1
CPXPARAM_MIP_Cuts_Implied                        2
CPXPARAM_MIP_Strategy_Probe                      3
CPXPARAM_MIP_Cuts_Gomory                         1
CPXPARAM_MIP_Cuts_PathCut                        2
CPXPARAM_MIP_Cuts_MIRCut                         1
CPXPARAM_MIP_Cuts_Disjunctive                    3
CPXPARAM_TimeLimit                               10
Tried aggregator 3 times.
MIP Presolve eliminated 88266 rows and 7696 columns.
MIP Presolve modified 93290 coefficients.
Aggregator did 11080 substitutions.
Reduced MIP has 47145 rows, 18685 columns, and 201232 nonzeros.
Reduced MIP has 18685 binaries, 0 generals, 0 SOSs, and 0 indicators.
Presolve time = 0.83 sec. (1435.97 ticks)
Found incumbent of value -33.200000 after 1.04 sec. (1819.75 ticks)
Probing fixed 2466 vars, tightened 0 bounds.
Probing changed sense of 6 constraints.
Probing time = 1.24 sec. (1338.47 ticks)
Tried aggregator 2 times.
MIP Presolve eliminated 9380 rows and 2913 columns.
MIP Presolve modified 5049 coefficients.
Aggregator did 141 substitutions.
Reduced MIP has 37621 rows, 15631 columns, and 145862 nonzeros.
Reduced MIP has 15631 binaries, 0 generals, 0 SOSs, and 0 indicators.
Presolve time = 0.32 sec. (568.50 ticks)
Probing fixed 834 vars, tightened 0 bounds.
Probing changed sense of 2 constraints.
Probing time = 0.78 sec. (830.13 ticks)
Tried aggregator 2 times.
Detecting symmetries...
MIP Presolve eliminated 5015 rows and 888 columns.
MIP Presolve modified 1133 coefficients.
Aggregator did 764 substitutions.
Reduced MIP has 31842 rows, 13979 columns, and 123744 nonzeros.
Reduced MIP has 13979 binaries, 0 generals, 0 SOSs, and 0 indicators.
Presolve time = 0.27 sec. (475.00 ticks)
Probing fixed 574 vars, tightened 0 bounds.
Probing time = 0.78 sec. (866.32 ticks)

        Nodes                                         Cuts/
   Node  Left     Objective  IInf  Best Integer    Best Bound    ItCnt     Gap

      0     1  -1.00000e+37     0      -33.2000   -26752.8000        0     --- 

Implied bound cuts applied:  0
Mixed integer rounding cuts applied:  0
Flow path cuts applied:  0
Gomory fractional cuts applied:  0
Disjunctive cuts applied:  0
Cone linearizations applied:  0

Root node processing (before b&c):
  Real time             =   10.01 sec. (15812.18 ticks)
Parallel b&c, 8 threads:
  Real time             =    0.00 sec. (0.00 ticks)
  Sync time (average)   =    0.00 sec.
  Wait time (average)   =    0.00 sec.
                          ------------
Total (root+branch&cut) =   10.01 sec. (15812.18 ticks)
Gap: 80480.7%
Upper bound: -33.2
Lower bound: -26752.8
End of CPLEX run. Time: 10.0145 seconds

===== New CPLEX run =====
Instance: /home/yorig/tuner/mpils-tests/instances/miplib/medium-1/neos-3555904-turama.mps
Config: /scratch/yorig/mpils-results-grid-seconds-10-no-mip-start/medium-1/4proc/seed-5/10_neos-3555904-turama_seed-5_20260503_050237/iterated_local_search/run_3_worker_3/ils_config_17290188457949006440.prm
========================

Selected objective sense:  MINIMIZE
Selected objective  name:  Obj
Selected RHS        name:  RHS
Selected bound      name:  Bound
Version identifier: 22.1.2.0 | 2024-11-26 | 0edbb82fd
CPXPARAM_Threads                                 8
CPXPARAM_Parallel                                1
CPXPARAM_MIP_Strategy_SubAlgorithm               4
CPXPARAM_MIP_Cuts_FlowCovers                     -1
CPXPARAM_MIP_Cuts_Implied                        1
CPXPARAM_MIP_Strategy_Probe                      3
CPXPARAM_MIP_Cuts_Gomory                         1
CPXPARAM_MIP_Cuts_PathCut                        2
CPXPARAM_MIP_Cuts_MIRCut                         1
CPXPARAM_MIP_Cuts_Disjunctive                    3
CPXPARAM_TimeLimit                               10
Tried aggregator 3 times.
MIP Presolve eliminated 88266 rows and 7696 columns.
MIP Presolve modified 93290 coefficients.
Aggregator did 11080 substitutions.
Reduced MIP has 47145 rows, 18685 columns, and 201232 nonzeros.
Reduced MIP has 18685 binaries, 0 generals, 0 SOSs, and 0 indicators.
Presolve time = 0.83 sec. (1435.97 ticks)
Found incumbent of value -33.200000 after 1.04 sec. (1819.75 ticks)
Probing fixed 2466 vars, tightened 0 bounds.
Probing changed sense of 6 constraints.
Probing time = 1.25 sec. (1338.47 ticks)
Tried aggregator 2 times.
MIP Presolve eliminated 9380 rows and 2913 columns.
MIP Presolve modified 5049 coefficients.
Aggregator did 141 substitutions.
Reduced MIP has 37621 rows, 15631 columns, and 145862 nonzeros.
Reduced MIP has 15631 binaries, 0 generals, 0 SOSs, and 0 indicators.
Presolve time = 0.32 sec. (568.50 ticks)
Probing fixed 834 vars, tightened 0 bounds.
Probing changed sense of 2 constraints.
Probing time = 0.77 sec. (830.13 ticks)
Tried aggregator 2 times.
Detecting symmetries...
MIP Presolve eliminated 5015 rows and 888 columns.
MIP Presolve modified 1133 coefficients.
Aggregator did 764 substitutions.
Reduced MIP has 31842 rows, 13979 columns, and 123744 nonzeros.
Reduced MIP has 13979 binaries, 0 generals, 0 SOSs, and 0 indicators.
Presolve time = 0.27 sec. (475.00 ticks)
Probing fixed 574 vars, tightened 0 bounds.
Probing time = 0.77 sec. (866.32 ticks)

        Nodes                                         Cuts/
   Node  Left     Objective  IInf  Best Integer    Best Bound    ItCnt     Gap

      0     1  -1.00000e+37     0      -33.2000   -26752.8000        0     --- 

Implied bound cuts applied:  0
Mixed integer rounding cuts applied:  0
Flow path cuts applied:  0
Gomory fractional cuts applied:  0
Disjunctive cuts applied:  0
Cone linearizations applied:  0

Root node processing (before b&c):
  Real time             =   10.00 sec. (15812.18 ticks)
Parallel b&c, 8 threads:
  Real time             =    0.00 sec. (0.00 ticks)
  Sync time (average)   =    0.00 sec.
  Wait time (average)   =    0.00 sec.
                          ------------
Total (root+branch&cut) =   10.00 sec. (15812.18 ticks)
Gap: 80480.7%
Upper bound: -33.2
Lower bound: -26752.8
End of CPLEX run. Time: 10.0106 seconds

===== New CPLEX run =====
Instance: /home/yorig/tuner/mpils-tests/instances/miplib/medium-1/neos-3555904-turama.mps
Config: /scratch/yorig/mpils-results-grid-seconds-10-no-mip-start/medium-1/4proc/seed-5/10_neos-3555904-turama_seed-5_20260503_050237/iterated_local_search/run_3_worker_3/ils_config_14627178099992591247.prm
========================

Selected objective sense:  MINIMIZE
Selected objective  name:  Obj
Selected RHS        name:  RHS
Selected bound      name:  Bound
Version identifier: 22.1.2.0 | 2024-11-26 | 0edbb82fd
CPXPARAM_Threads                                 8
CPXPARAM_Parallel                                1
CPXPARAM_MIP_Strategy_SubAlgorithm               4
CPXPARAM_MIP_Cuts_FlowCovers                     2
CPXPARAM_MIP_Cuts_Implied                        2
CPXPARAM_MIP_Strategy_Probe                      3
CPXPARAM_MIP_Cuts_Gomory                         1
CPXPARAM_MIP_Cuts_PathCut                        2
CPXPARAM_MIP_Cuts_MIRCut                         1
CPXPARAM_MIP_Cuts_Disjunctive                    3
CPXPARAM_TimeLimit                               10
Tried aggregator 3 times.
MIP Presolve eliminated 88266 rows and 7696 columns.
MIP Presolve modified 93290 coefficients.
Aggregator did 11080 substitutions.
Reduced MIP has 47145 rows, 18685 columns, and 201232 nonzeros.
Reduced MIP has 18685 binaries, 0 generals, 0 SOSs, and 0 indicators.
Presolve time = 0.83 sec. (1435.97 ticks)
Found incumbent of value -33.200000 after 1.04 sec. (1819.75 ticks)
